% 5x5 Kakuro

n = 5;

% 1 = Celdas validas (numeros)
% 0 = muro o pista
validCell = array2d(1..5, 1..5, [
  0, 0, 1, 1, 1,
  0, 1, 1, 0, 0,
  0, 1, 1, 1, 1,
  0, 1, 1, 1, 1,
  0, 0, 1, 1, 0
]);

% Suma horizontal pistas
hsum = array2d(1..5, 1..5, [
  0, 10, 0, 0, 0,
  11, 0, 0, 0, 0,
  18, 0, 0, 0, 0,
  18, 0, 0, 0, 0,
  0, 7, 0, 0, 0
]);

% Suma vertical pistas
vsum = array2d(1..5, 1..5, [
  0, 18, 0, 0, 8,
  0, 0, 0, 0, 0,
  0, 0, 0, 0, 0,
  0, 0, 0, 0, 0,
  0, 0, 0, 0, 0
]);